Maximize
score: + 36 c0 + 64 c1 + 64 c2 + 36 c3 + 128 c4 + 97 c5 + 113 c6 + 64 c7 + 18 c8 + 48 c9 + 2814 c10 + 338 c11 + 80 c12 + 121 c13 + 200 c14 + 110 c15 + 126 c16 + 64 c17 + 112 c18 + 53 c19 + 26 c20 + 81 c21 + 336 c22 + 171 c23 + 96 c24 + 260 c25 + 56 c26 + 56 c27 + 20 c28 + 368 c29 + 144 c30 + 40 c31 + 154 c32 + 180 c33 + 143 c34 + 41 c35 + 164 c36 + 91 c37 + 323 c38 + 39 c39 + 50 c40 + 70 c41 + 143 c42 + 143 c43 + 245 c44 + 182 c45 + 494 c46 + 127 c47 + 288 c48 + 162 c49 + 63 c50 + 459 c51 + 156 c52 + 312 c53 + 1044 c54 + 898 c55 + 500 c56 + 902 c57 + 98 c58 + 74 c59 + 54 c60 + 198 c61 + 492 c62 + 492 c63 + 133 c64 + 311 c65 + 90 c66 + 2200 c67 + 900 c68 + 221 c69 + 57 c70 + 110 c71 + 130 c72 + 4268 c73 + 88 c74 + 110 c75 + 142 c76 + 15 c77 + 8294 c78 + 1072 c79 + 146 c80 + 118 c81 + 152 c82 - 0.377 s0 - 0.28 s1 - 0.387 s2 - 0.737 s3 - 0.39 s4 - 0.36 s5 - 0.363 s6 - 0.617 s7 - 0.413 s8 - 0.813 s9 - 0.503 s10 - 0.647 s11 - 0.697 s12 - 0.05 s13 - 0.453 s14 - 0.397 s15 - 0.88 s16 - 0.017 s17 - 0.2 s18 - 0.28 s19 - 0.05 s20 - 0.05 s21 - 0.27 s22 - 0.39 s23 - 0.247 s24 - 0.433 s25 - 0.097 s26 - 0.25 s27 - 0.293 s28 - 0.42 s29 - 0.19 s30 - 0.263 s31 - 0.27 s32 - 0.33 s33 - 0.423 s34 - 0.0 s35 - 0.52 s36 - 0.33 s37 - 0.617 s38 - 0.317 s39 - 0.17 s40 - 0.49 s41 - 0.273 s42 - 0.593 s43 - 0.29 s44 - 0.88 s45 - 0.017 s46 - 0.2 s47 - 0.28 s48 - 0.05 s49 - 0.05 s50 - 0.27 s51 - 0.39 s52 - 0.247 s53 - 0.433 s54 - 0.297 s55 - 0.24 s56 - 0.25 s57 - 0.293 s58 - 0.42 s59 - 0.19 s60 - 0.263 s61 - 0.27 s62 - 0.33 s63 - 0.423 s64 - 0.0 s65 - 0.52 s66 - 0.39 s67 - 0.617 s68 - 0.317 s69 - 0.17 s70 - 0.49 s71 - 0.187 s72 - 0.273 s73 - 0.593 s74 - 0.29 s75 - 0.593 s76 - 0.28 s77 - 0.193 s78 - 0.19 s79 - 0.26 s80 - 0.34 s81 - 0.193 s82 - 0.47 s83 - 0.02 s84 - 0.333 s85 - 0.48 s86 - 0.02 s87 - 0.29 s88 - 0.0 s89 - 0.593 s90 - 0.28 s91 - 0.193 s92 - 0.19 s93 - 0.26 s94 - 0.34 s95 - 0.47 s96 - 0.02 s97 - 0.333 s98 - 0.1 s99 - 0.38 s100 - 0.02 s101 - 0.29 s102 - 0.0 s103 - 0.317 s104 - 0.523 s105 - 0.4 s106 - 0.717 s107 - 0.597 s108 - 0.29 s109 - 0.307 s110 - 0.013 s111 - 0.607 s112 - 0.34 s113 - 0.617 s114 - 0.34 s115 - 0.573 s116 - 0.357 s117 - 0.52 s118 - 0.847 s119 - 0.143 s120 - 0.463 s121 - 0.303 s122 - 0.59 s123 - 0.267 s124 - 0.897 s125 - 0.48 s126 - 0.26 s127 - 0.543 s128 - 0.46 s129 - 0.417 s130 - 0.35 s131 - 1.0 s132 - 0.307 s133

Subject To
index_0: 1 s37 + 1 s38 + 1 s39 + 1 s67 + 1 s68 + 1 s69 - c0 >= 0
index_1: 1 s36 + 1 s39 + 1 s41 + 1 s42 + 1 s66 + 1 s69 + 1 s71 + 1 s73 - c1 >= 0
index_2: 1 s78 + 1 s80 + 1 s84 + 1 s87 + 1 s92 + 1 s94 + 1 s97 + 1 s101 - c2 >= 0
index_3: 2 s36 + 1 s37 + 2 s66 + 1 s67 - c3 >= 0
index_4: 2 s43 + 2 s74 + 1 s85 + 1 s88 + 1 s98 + 1 s102 - c4 >= 0
index_5: 1 s78 + 1 s83 + 1 s86 + 1 s92 + 1 s96 + 2 s100 + 2 s131 - c5 >= 0
index_6: 2 s18 + 2 s19 + 2 s47 + 2 s48 + 3 s109 + 2 s110 + 2 s112 - c6 >= 0
index_7: 1 s36 + 1 s39 + 1 s41 + 1 s42 + 1 s66 + 1 s69 + 1 s71 + 1 s73 - c7 >= 0
index_8: 1 s26 + 1 s37 + 1 s38 + 1 s39 + 1 s67 + 1 s69 - c8 >= 0
index_9: 1 s37 + 1 s38 + 1 s39 + 1 s67 + 1 s68 + 1 s69 - c9 >= 0
index_10: 1 s20 + 1 s21 + 1 s34 + 1 s39 + 1 s49 + 1 s50 + 1 s64 + 1 s69 + 1 s77 + 1 s79 + 1 s82 + 1 s83 + 1 s85 + 1 s86 + 1 s88 + 1 s91 + 1 s93 + 1 s96 + 1 s98 + 1 s100 + 1 s102 - c10 >= 0
index_11: 1 s22 + 1 s26 + 1 s38 + 1 s40 + 1 s41 + 1 s42 + 1 s51 + 1 s68 + 1 s70 + 1 s71 + 1 s73 + 1 s78 + 1 s92 - c11 >= 0
index_12: 1 s27 + 1 s36 + 1 s41 + 1 s42 + 1 s57 + 1 s66 + 1 s71 + 1 s73 - c12 >= 0
index_13: 1 s28 + 1 s38 + 1 s39 + 1 s58 + 1 s68 + 1 s69 + 1 s85 + 1 s88 + 1 s98 + 1 s102 + 1 s132 - c13 >= 0
index_14: 1 s39 + 4 s43 + 1 s69 + 2 s74 + 1 s88 + 1 s102 + 1 s130 + 1 s131 - c14 >= 0
index_15: 1 s39 + 2 s43 + 1 s69 + 2 s74 + 1 s88 + 1 s102 + 1 s130 + 1 s131 - c15 >= 0
index_16: 1 s28 + 1 s31 + 1 s32 + 1 s58 + 1 s62 + 1 s76 + 1 s80 + 1 s90 + 1 s94 - c16 >= 0
index_17: 4 s23 + 4 s29 + 5 s52 + 3 s59 - c17 >= 0
index_18: 1 s79 + 1 s81 + 1 s82 + 1 s85 + 1 s88 + 1 s93 + 1 s95 + 1 s98 + 1 s102 + 1 s113 + 1 s127 + 1 s132 + 1 s133 - c18 >= 0
index_19: 2 s36 + 1 s37 + 1 s40 + 2 s66 + 1 s67 + 1 s70 + 1 s132 - c19 >= 0
index_20: 2 s16 + 2 s37 + 1 s67 - c20 >= 0
index_21: 2 s43 + 2 s74 + 1 s88 + 1 s102 + 1 s130 + 1 s131 + 1 s132 - c21 >= 0
index_22: 1 s26 + 1 s37 + 1 s55 + 1 s63 + 1 s68 + 1 s76 + 1 s83 + 1 s86 + 1 s90 + 1 s91 + 1 s96 + 1 s100 - c22 >= 0
index_23: 1 s15 + 1 s76 + 1 s81 + 1 s88 + 1 s90 + 1 s95 + 1 s104 + 1 s112 + 1 s133 - c23 >= 0
index_24: 1 s38 + 1 s39 + 1 s43 + 1 s68 + 1 s69 + 1 s74 - c24 >= 0
index_25: 1 s3 + 1 s14 + 1 s15 + 1 s19 + 1 s29 + 1 s48 + 1 s104 + 1 s105 + 3 s107 + 1 s108 + 1 s133 - c25 >= 0
index_26: 1 s16 + 1 s38 + 1 s39 + 1 s43 + 1 s68 + 1 s69 + 1 s74 - c26 >= 0
index_27: 1 s16 + 1 s38 + 1 s39 + 1 s43 + 1 s68 + 1 s69 + 1 s74 - c27 >= 0
index_28: 1 s36 + 1 s41 + 1 s42 + 1 s71 + 1 s73 - c28 >= 0
index_29: 1 s15 + 1 s25 + 1 s26 + 1 s54 + 1 s76 + 1 s77 + 1 s79 + 1 s82 + 1 s83 + 1 s90 + 1 s91 + 1 s93 + 1 s96 + 1 s131 + 1 s132 + 1 s133 - c29 >= 0
index_30: 1 s23 + 1 s24 + 1 s29 + 1 s76 + 1 s79 + 1 s90 + 1 s93 + 1 s132 - c30 >= 0
index_31: 1 s80 + 1 s81 + 1 s82 + 1 s94 + 1 s132 - c31 >= 0
index_32: 1 s14 + 1 s15 + 1 s16 + 1 s79 + 1 s82 + 1 s85 + 1 s88 + 1 s93 + 1 s98 + 1 s102 + 1 s133 - c32 >= 0
index_33: 2 s25 + 1 s76 + 1 s78 + 1 s83 + 2 s86 + 1 s90 + 1 s92 + 1 s96 + 1 s99 + 1 s100 - c33 >= 0
index_34: 1 s14 + 1 s15 + 1 s16 + 1 s79 + 1 s82 + 1 s85 + 1 s88 + 1 s93 + 1 s98 + 1 s102 + 1 s133 - c34 >= 0
index_35: 1 s27 + 2 s28 + 1 s32 + 1 s57 + 1 s58 + 1 s62 - c35 >= 0
index_36: 3 s8 + 23 s9 - c36 >= 0
index_37: 2 s16 + 3 s41 + 5 s71 - c37 >= 0
index_38: 1 s15 + 1 s19 + 1 s25 + 1 s54 + 1 s76 + 1 s81 + 2 s83 + 1 s86 + 1 s90 + 1 s95 + 2 s96 + 1 s100 + 1 s104 + 1 s112 + 1 s133 - c38 >= 0
index_39: 5 s124 - c39 >= 0
index_40: 1 s29 + 1 s42 + 1 s73 + 1 s77 + 1 s91 - c40 >= 0
index_41: 1 s23 + 2 s52 + 5 s53 - c41 >= 0
index_42: 1 s14 + 1 s15 + 1 s16 + 1 s79 + 1 s82 + 1 s85 + 1 s88 + 1 s93 + 1 s98 + 1 s102 + 1 s133 - c42 >= 0
index_43: 1 s14 + 1 s15 + 1 s16 + 1 s79 + 1 s82 + 1 s85 + 1 s88 + 1 s93 + 1 s98 + 1 s102 + 1 s133 - c43 >= 0
index_44: 1 s23 + 1 s24 + 1 s29 + 1 s76 + 1 s77 + 1 s79 + 2 s80 + 1 s81 + 1 s82 + 1 s90 + 1 s91 + 1 s93 + 2 s94 + 1 s95 + 1 s104 + 2 s132 - c44 >= 0
index_45: 1 s24 + 1 s29 + 1 s38 + 1 s68 + 1 s76 + 1 s77 + 1 s79 + 1 s80 + 1 s82 + 1 s90 + 1 s91 + 1 s93 + 1 s94 + 2 s132 - c45 >= 0
index_46: 1 s24 + 1 s25 + 2 s76 + 1 s77 + 1 s78 + 1 s83 + 1 s85 + 2 s86 + 2 s90 + 1 s91 + 1 s92 + 1 s96 + 1 s98 + 1 s99 + 1 s100 + 1 s107 - c46 >= 0
index_47: 2 s16 + 1 s38 + 1 s39 + 1 s43 + 1 s67 + 1 s68 + 1 s69 + 1 s74 - c47 >= 0
index_48: 3 s4 + 4 s16 + 4 s19 + 2 s29 + 4 s45 + 4 s48 + 4 s59 + 4 s104 + 3 s106 - c48 >= 0
index_49: 21 s45 - c49 >= 0
index_50: 1 s16 + 1 s19 + 1 s29 + 1 s45 + 1 s48 + 1 s59 + 1 s104 - c50 >= 0
index_51: 4 s25 + 1 s76 + 2 s83 + 3 s86 + 2 s90 + 2 s96 + 1 s99 + 2 s100 - c51 >= 0
index_52: 1 s7 + 2 s12 + 1 s14 + 1 s108 + 1 s114 - c52 >= 0
index_53: 1 s7 + 1 s14 + 1 s15 + 1 s16 + 1 s79 + 1 s82 + 1 s85 + 1 s88 + 1 s93 + 1 s98 + 1 s102 + 1 s133 - c53 >= 0
index_54: 1 s11 + 1 s16 + 1 s26 + 2 s76 + 1 s77 + 2 s81 + 1 s83 + 1 s86 + 2 s90 + 1 s91 + 2 s95 + 1 s96 + 1 s100 + 2 s112 + 1 s113 + 1 s114 + 1 s116 + 1 s117 + 1 s118 + 1 s127 + 1 s128 + 1 s129 + 1 s131 + 1 s132 - c54 >= 0
index_55: 6 s3 + 1 s25 + 1 s39 + 1 s54 + 1 s69 + 2 s76 + 1 s77 + 1 s78 + 1 s83 + 1 s85 + 2 s86 + 1 s88 + 2 s90 + 1 s91 + 1 s92 + 1 s96 + 1 s98 + 1 s99 + 1 s100 + 1 s102 + 1 s107 - c55 >= 0
index_56: 1 s24 + 1 s25 + 1 s54 + 2 s76 + 1 s77 + 1 s78 + 1 s83 + 1 s85 + 2 s86 + 2 s90 + 1 s91 + 1 s92 + 1 s96 + 1 s98 + 1 s99 + 1 s100 + 1 s107 - c56 >= 0
index_57: 1 s6 + 1 s34 + 1 s38 + 1 s68 + 1 s83 + 1 s85 + 1 s96 + 1 s98 + 1 s128 + 2 s132 - c57 >= 0
index_58: 3 s12 + 1 s14 + 1 s108 + 1 s114 + 1 s123 - c58 >= 0
index_59: 1 s23 + 1 s29 + 1 s38 + 1 s42 + 1 s43 + 1 s68 + 1 s73 + 1 s74 + 1 s94 - c59 >= 0
index_60: 3 s12 + 1 s14 + 1 s108 + 1 s114 - c60 >= 0
index_61: 1 s14 + 1 s15 + 1 s16 + 1 s79 + 1 s82 + 1 s85 + 1 s88 + 1 s93 + 1 s98 + 1 s102 + 1 s133 - c61 >= 0
index_62: 1 s22 + 1 s33 + 1 s34 + 1 s63 + 1 s64 + 1 s72 - c62 >= 0
index_63: 1 s23 + 1 s38 + 1 s41 + 1 s68 + 1 s71 + 1 s76 - c63 >= 0
index_64: 1 s32 + 1 s126 + 1 s127 + 2 s128 + 1 s129 + 1 s132 - c64 >= 0
index_65: 1 s34 + 3 s36 + 1 s37 + 1 s64 + 3 s66 + 1 s67 + 1 s80 + 1 s81 + 1 s94 + 1 s95 + 1 s130 - c65 >= 0
index_66: 1 s38 + 1 s39 + 1 s68 + 1 s69 + 1 s85 + 1 s88 + 1 s98 + 1 s102 + 1 s130 - c66 >= 0
index_67: 1 s16 + 1 s18 + 1 s19 + 1 s20 + 2 s23 + 1 s24 + 1 s25 + 1 s27 + 2 s28 + 1 s29 + 1 s30 + 1 s31 + 2 s32 + 1 s33 + 1 s34 + 1 s36 + 1 s37 + 3 s38 + 1 s39 + 2 s41 + 1 s42 + 1 s43 + 1 s44 + 1 s49 + 5 s52 + 1 s53 + 1 s57 + 2 s58 + 1 s59 + 2 s60 + 3 s61 + 3 s62 + 1 s63 + 1 s64 + 1 s66 + 1 s67 + 3 s68 + 1 s69 + 2 s71 + 1 s72 + 1 s73 + 1 s74 + 1 s75 + 1 s76 + 1 s77 + 1 s90 + 1 s91 - c67 >= 0
index_68: 1 s15 + 1 s18 + 1 s19 + 1 s23 + 1 s24 + 1 s25 + 1 s28 + 1 s30 + 1 s31 + 1 s32 + 1 s53 + 1 s58 + 1 s76 + 1 s77 + 1 s83 + 1 s90 + 1 s91 + 1 s92 + 1 s96 + 1 s107 + 1 s109 + 1 s110 + 1 s112 + 1 s132 + 1 s133 - c68 >= 0
index_69: 3 s7 + 2 s11 + 2 s12 + 1 s108 + 1 s118 + 1 s120 + 1 s123 + 1 s126 + 2 s127 + 2 s130 - c69 >= 0
index_70: 2 s10 + 2 s11 + 1 s115 + 1 s117 + 1 s118 + 1 s125 + 2 s126 - c70 >= 0
index_71: 11 s116 + 5 s117 - c71 >= 0
index_72: 1 s127 + 1 s128 + 1 s131 + 1 s132 + 1 s133 - c72 >= 0
index_73: 3 s10 + 1 s11 + 1 s15 + 1 s23 + 1 s25 + 1 s30 + 1 s34 + 3 s36 + 2 s38 + 1 s41 + 1 s43 + 1 s54 + 2 s66 + 2 s68 + 1 s71 + 1 s72 + 1 s74 + 1 s77 + 1 s80 + 1 s86 + 1 s88 + 1 s91 + 1 s94 + 1 s100 + 1 s102 + 1 s105 + 1 s108 + 2 s112 + 1 s120 + 1 s127 + 1 s128 + 2 s129 + 3 s132 - c73 >= 0
index_74: 1 s6 + 1 s7 + 3 s11 + 2 s119 + 1 s125 + 1 s129 + 1 s132 - c74 >= 0
index_75: 2 s10 + 1 s11 + 3 s119 + 3 s124 + 2 s125 - c75 >= 0
index_76: 3 s6 + 1 s10 + 1 s11 + 2 s119 + 1 s122 + 1 s125 - c76 >= 0
index_77: 6 s121 + 1 s122 - c77 >= 0
index_78: 1 s5 + 1 s6 + 1 s10 + 1 s12 + 1 s14 + 1 s15 + 1 s17 + 1 s18 + 1 s22 + 1 s23 + 1 s24 + 1 s26 + 1 s28 + 1 s29 + 1 s30 + 1 s32 + 1 s33 + 1 s35 + 1 s36 + 1 s38 + 1 s40 + 1 s41 + 1 s42 + 1 s43 + 1 s53 + 1 s63 + 1 s65 + 2 s66 + 1 s67 + 1 s68 + 1 s70 + 1 s71 + 1 s72 + 1 s73 + 1 s75 + 1 s76 + 1 s89 + 1 s90 + 1 s103 + 1 s104 + 1 s105 + 1 s106 + 1 s107 + 1 s108 + 1 s109 + 1 s110 + 1 s112 + 1 s113 + 1 s116 + 1 s120 + 1 s123 + 2 s125 + 1 s126 + 1 s127 + 2 s128 + 1 s129 + 1 s130 + 1 s131 + 1 s132 + 1 s133 - c78 >= 0
index_79: 1 s78 + 1 s81 + 1 s84 + 1 s87 + 1 s92 + 1 s94 + 1 s95 + 1 s97 - c79 >= 0
index_80: 3 s0 + 12 s2 - c80 >= 0
index_81: 3 s5 + 3 s6 + 2 s11 + 6 s119 + 3 s126 - c81 >= 0
index_82: 2 s38 + 2 s68 + 1 s83 + 2 s85 + 1 s96 + 2 s98 + 1 s128 + 1 s132 - c82 >= 0
length: s0 + s1 + s2 + s3 + s4 + s5 + s6 + s7 + s8 + s9 + s10 + s11 + s12 + s13 + s14 + s15 + s16 + s17 + s18 + s19 + s20 + s21 + s22 + s23 + s24 + s25 + s26 + s27 + s28 + s29 + s30 + s31 + s32 + s33 + s34 + s35 + s36 + s37 + s38 + s39 + s40 + s41 + s42 + s43 + s44 + s45 + s46 + s47 + s48 + s49 + s50 + s51 + s52 + s53 + s54 + s55 + s56 + s57 + s58 + s59 + s60 + s61 + s62 + s63 + s64 + s65 + s66 + s67 + s68 + s69 + s70 + s71 + s72 + s73 + s74 + s75 + s76 + s77 + s78 + s79 + s80 + s81 + s82 + s83 + s84 + s85 + s86 + s87 + s88 + s89 + s90 + s91 + s92 + s93 + s94 + s95 + s96 + s97 + s98 + s99 + s100 + s101 + s102 + s103 + s104 + s105 + s106 + s107 + s108 + s109 + s110 + s111 + s112 + s113 + s114 + s115 + s116 + s117 + s118 + s119 + s120 + s121 + s122 + s123 + s124 + s125 + s126 + s127 + s128 + s129 + s130 + s131 + s132 + s133 <= 26



Binary
c0
c1
c2
c3
c4
c5
c6
c7
c8
c9
c10
c11
c12
c13
c14
c15
c16
c17
c18
c19
c20
c21
c22
c23
c24
c25
c26
c27
c28
c29
c30
c31
c32
c33
c34
c35
c36
c37
c38
c39
c40
c41
c42
c43
c44
c45
c46
c47
c48
c49
c50
c51
c52
c53
c54
c55
c56
c57
c58
c59
c60
c61
c62
c63
c64
c65
c66
c67
c68
c69
c70
c71
c72
c73
c74
c75
c76
c77
c78
c79
c80
c81
c82
s0
s1
s2
s3
s4
s5
s6
s7
s8
s9
s10
s11
s12
s13
s14
s15
s16
s17
s18
s19
s20
s21
s22
s23
s24
s25
s26
s27
s28
s29
s30
s31
s32
s33
s34
s35
s36
s37
s38
s39
s40
s41
s42
s43
s44
s45
s46
s47
s48
s49
s50
s51
s52
s53
s54
s55
s56
s57
s58
s59
s60
s61
s62
s63
s64
s65
s66
s67
s68
s69
s70
s71
s72
s73
s74
s75
s76
s77
s78
s79
s80
s81
s82
s83
s84
s85
s86
s87
s88
s89
s90
s91
s92
s93
s94
s95
s96
s97
s98
s99
s100
s101
s102
s103
s104
s105
s106
s107
s108
s109
s110
s111
s112
s113
s114
s115
s116
s117
s118
s119
s120
s121
s122
s123
s124
s125
s126
s127
s128
s129
s130
s131
s132
s133
End